41 75 68 80 
5 17 49 64 62 86 44 37 30 35 71 34 3 53 8 50 12 84 27 6 61 16 42 74 56 72 40 83 73 28 58 95 
67 76 11 1 93 43 18 4 22 14 45 54 
21 31 52 81 19 85 91 98 79 
92 36 70 59 38 39 90 65 77 25 78 57 88 
32 99 24 13 97 48 
15 87 55 89 
69 23 47 20 60 94 33 9 7 2 96 51 66 63 29 26 82 46 100 10 

